#SOLVERNAME# PAJ_CPLEX_MOSEK_msdnostarts
#SOLVER# Pajarito.PajaritoSolver(3,120.0,1.0e-5,true,CPLEX.CplexSolver(Any[(:CPX_PARAM_THREADS,1),(:CPX_PARAM_SCRIND,1),(:CPX_PARAM_EPINT,1.0e-8),(:CPX_PARAM_EPRHS,1.0e-6),(:CPX_PARAM_EPGAP,1.0e-5)]),Pajarito.UnsetSolver(),0,false,false,Mosek.MosekMathProgSolverInterface.MosekSolver(Any[(:LOG,0),(:NUM_THREADS,1)]),true,true,false,false,true,false,false,true,false,true,true,true,true,false,true,2.0,true,false,false,true,1.0e-10,1.0e-6)
#INSTANCE# estein5_B.cbf.gz
#TIMELIMIT# 120.0

Problem dimensions:
       variables |       132
     constraints |       211
   nonzeros in A |       258

Cones summary:
Cone             | Count     | Min dim.  | Max dim. 
    Second order |        18 |         3 |         3

Variable types:
      continuous |       114
         integer |        18

Transforming data...               0.00s

Creating conic subproblem...       0.00s

Building MIP model...              0.00s

Solving conic relaxation...        0.02s
 - Relaxation status    =        Optimal
 - Relaxation objective =      -0.000000

Mixed integer rounding cuts applied:  4
Gomory fractional cuts applied:  3
User cuts applied:  86

Root node processing (before b&c):
  Real time             =    0.32 sec. (16.86 ticks)
Sequential b&c:
  Real time             =    0.01 sec. (5.04 ticks)
                          ------------
Total (root+branch&cut) =    0.33 sec. (21.90 ticks)
Warning: Control callbacks may disable some MIP features.
Tried aggregator 2 times.
MIP Presolve eliminated 153 rows and 21 columns.
Aggregator did 36 substitutions.
Reduced MIP has 238 rows, 111 columns, and 724 nonzeros.
Reduced MIP has 11 binaries, 0 generals, 0 SOSs, and 0 indicators.
Presolve time = 0.00 sec. (0.70 ticks)
Probing fixed 0 vars, tightened 12 bounds.
Probing time = 0.00 sec. (0.06 ticks)
Clique table members: 5.
MIP emphasis: balance optimality and feasibility.
MIP search method: traditional branch-and-cut.
Parallel mode: none, using 1 thread.
Root relaxation solution time = 0.00 sec. (0.83 ticks)

        Nodes                                         Cuts/
   Node  Left     Objective  IInf  Best Integer    Best Bound    ItCnt     Gap

      0     0        0.0000     8                      0.0000       78         
*     0+    0                            1.2053        0.0000           100.00%
      0     0        0.0000     8        1.2053      Cuts: 29      130  100.00%
      0     0        0.0000     8        1.2053      Cuts: 14      163  100.00%
*     0+    0                            1.2053        0.0000           100.00%
      0     2        0.0000     8        1.2053        0.0000      163  100.00%
Elapsed time = 0.03 sec. (20.30 ticks, tree = 0.01 MB, solutions = 2)
*    10+   10                            1.2053        0.0000           100.00%
*    17    13      integral     0        1.2053        0.0000      535  100.00%
*    20+   13                            1.2053        0.0002            99.98%
*    94    39      integral     0        1.1932        0.3570     2620   70.08%
*   194+   58                            1.1932        0.6904            42.13%

Starting MIP-solver-driven algorithm

MIP-solver-driven algorithm summary:
 - Status               =        Optimal
 - Best feasible        =  +1.193160e+00
 - Best bound           =  +1.193159e+00
 - Relative opt. gap    =      3.845e-07
 - Total time (s)       =       2.58e-01

Timers (s):
 - Setup                =   2.25e-03
 -- Transform data      =   1.46e-04
 -- Create conic data   =   1.20e-03
 -- Create MIP data     =   9.06e-04
 - Algorithm            =   2.56e-01
 -- Solve relaxation    =   1.55e-02
 -- Get relaxation cuts =   7.16e-05
 -- MIP solver driving  =   2.40e-01
 -- Solve subproblems   =   2.13e-02
 -- Get subproblem cuts =   2.38e-03
 -- Get primal cuts     =   5.18e-04

Counters:
 - Lazy callbacks       =    45
 -- Integer repeats     =    31
 -- Conic subproblems   =    14
 --- Infeasible         =     0
 --- Optimal            =    14
 --- Suboptimal         =     0
 --- UserLimit          =     0
 --- ConicFailure       =     0
 --- Other status       =     0
 -- Feasible solutions  =    17
 --- From subproblems   =    14
 --- In lazy callback   =     3
 - Heuristic callbacks  =     0
 -- Solutions passed    =     0

Solution returned by MIP solver

Outer-approximation cuts added:
Cone             | Relax.    | Violated  | Nonviol. 
    Second order |        36 |       186 |         0

0 numerically unstable cone duals encountered

Distance to feasibility (negative indicates strict feasibility):
Cone             | Variable  | Constraint
          Linear |  0.00e+00 |  4.44e-16
    Second order |  7.42e-06 |        NA

Distance to integrality of integer/binary variables:
         integer |  0.00e+00


Implied bound cuts applied:  1
Flow cuts applied:  2
Mixed integer rounding cuts applied:  3
User cuts applied:  158

Root node processing (before b&c):
  Real time             =    0.03 sec. (20.30 ticks)
Sequential b&c:
  Real time             =    0.21 sec. (175.28 ticks)
                          ------------
Total (root+branch&cut) =    0.24 sec. (195.58 ticks)
#STATUS# Optimal
#OBJVAL# 1.19315990243171
#OBJBOUND# 1.1931594436272182
#TIMESOLVER# 0.25800108909606934
#TIMEALL# 0.2586500644683838
#SOLUTION# [0.211679,0.272131,0.26251222822652204,0.33956388449428315,0.7036347313031128,0.28922210564216816,0.721562,-0.064663,0.34100600000000003,0.29694649275291496,-0.11549622822652203,0.2735731155057169,0.721562,-0.5566187313031128,0.3239148943578319,0.10504663652372956,-0.086485,-0.05962500000000001,0.721562,-0.13731822822652204,-0.12705788449428315,0.721562,-0.5784407313031128,-0.07671610564216816,0.721562,0.529425,-0.06852000000000003,0.721562,0.47859177177347795,-0.13595288449428317,0.093449947566511,0.03746926869688716,-0.08561110564216817,0.721562,0.5927530000000001,0.153101,0.7215620000000005,0.541919771773478,0.08566811550571685,0.16928834896173478,0.10079726869688721,0.13600989435783184,0.0,0.0,0.0,0.721562,-0.05083322822652203,-0.06743288449428314,0.721562,-0.4919557313031128,-0.017091105642168147,0.08444531145287057,-0.05083322822652203,-0.06743288449428314,0.721562,-0.4919557313031128,-0.017091105642168147,0.44398316517394937,-0.4411225030765908,0.05034177885211499,0.0,0.29694649275291496,0.0,0.10504663652372956,0.0,0.0,0.0,0.0,0.093449947566511,0.0,0.0,0.16928834896173478,0.0,0.0,0.0,0.08444531145287057,0.0,0.44398316517394937,0.0,1.0,-0.0,1.0,0.0,0.0,0.0,-0.0,1.0,0.0,0.0,1.0,1.0,0.0,0.0,1.0,0.0,1.0,1.0,0.0,1.0,0.0,1.0,1.0,1.0,1.0,0.0,1.0,1.0,0.0,0.0,1.0,1.0,0.0,1.0,0.0,0.0,0.4246155072470851,-0.0,0.6165153634762705,-0.0,-0.0,0.0,-0.0,0.628112052433489,0.0,-0.0,0.5522736510382653,0.721562,-0.0,-0.0,0.6371166885471294,0.0,0.27757883482605067]
